NAME 
ROWS
 N  OBJ
 L  R0      
 E  R1      
 E  R2      
 E  R3      
 E  R4      
 E  R5      
 E  R6      
 E  R7      
 E  R8      
 E  R9      
 E  R10     
 E  R11     
 E  R12     
 E  R13     
 E  R14     
 E  R15     
 E  R16     
 E  R17     
 E  R18     
 E  R19     
 E  R20     
 E  R21     
 E  R22     
 E  R23     
 E  R24     
 E  R25     
COLUMNS
    MARKER    'MARKER'                 'INTORG'
    I0(7)     OBJ       135
    I0(7)     R0        -197
    I0(7)     R4        4
    I0(7)     R5        11
    I0(7)     R6        15
    I0(7)     R8        1
    I0(7)     R9        -1
    I0(7)     R25       1
    I1(8)     OBJ       11
    I1(8)     R0        189
    I1(8)     R3        4
    I1(8)     R6        6
    I1(8)     R7        10
    I1(8)     R8        12
    I1(8)     R9        17
    I1(8)     R10       9
    I1(8)     R25       1
    I2(8)     OBJ       -185
    I2(8)     R0        -178
    I2(8)     R1        9
    I2(8)     R2        19
    I2(8)     R5        4
    I2(8)     R6        8
    I2(8)     R7        -1
    I2(8)     R9        13
    I2(8)     R25       1
    I3(7)     OBJ       196
    I3(7)     R0        -69
    I3(7)     R1        18
    I3(7)     R2        6
    I3(7)     R4        5
    I3(7)     R7        4
    I3(7)     R8        18
    I3(7)     R25       1
    I4(6)     OBJ       87
    I4(6)     R0        121
    I4(6)     R3        13
    I4(6)     R5        14
    I4(6)     R6        3
    I4(6)     R8        8
    I4(6)     R25       1
    I5(6)     OBJ       82
    I5(6)     R0        195
    I5(6)     R2        17
    I5(6)     R7        14
    I5(6)     R8        18
    I5(6)     R10       3
    I5(6)     R25       1
    I6(9)     OBJ       10
    I6(9)     R0        -62
    I6(9)     R1        2
    I6(9)     R2        4
    I6(9)     R3        18
    I6(9)     R5        14
    I6(9)     R6        7
    I6(9)     R7        11
    I6(9)     R8        13
    I6(9)     R25       1
    I7(4)     OBJ       -38
    I7(4)     R0        178
    I7(4)     R2        17
    I7(4)     R5        9
    I7(4)     R25       1
    I8(9)     OBJ       -71
    I8(9)     R0        142
    I8(9)     R1        14
    I8(9)     R3        -1
    I8(9)     R6        3
    I8(9)     R7        17
    I8(9)     R8        15
    I8(9)     R9        8
    I8(9)     R10       5
    I8(9)     R25       1
    I9(11)    OBJ       20
    I9(11)    R0        -143
    I9(11)    R1        5
    I9(11)    R2        16
    I9(11)    R3        13
    I9(11)    R4        17
    I9(11)    R5        15
    I9(11)    R7        17
    I9(11)    R8        13
    I9(11)    R9        9
    I9(11)    R10       3
    I9(11)    R25       1
    MARKER    'MARKER'                 'INTEND'
    C10(12)   OBJ       6
    C10(12)   R0        -10
    C10(12)   R5        16
    C10(12)   R6        16
    C10(12)   R9        3
    C10(12)   R11       13
    C10(12)   R12       6
    C10(12)   R13       6
    C10(12)   R15       3
    C10(12)   R16       2
    C10(12)   R20       15
    C10(12)   R21       14
    C10(12)   R24       12
    C11(12)   OBJ       7
    C11(12)   R0        -4
    C11(12)   R2        7
    C11(12)   R4        19
    C11(12)   R6        10
    C11(12)   R11       10
    C11(12)   R12       1
    C11(12)   R13       5
    C11(12)   R14       13
    C11(12)   R15       16
    C11(12)   R17       17
    C11(12)   R20       16
    C11(12)   R24       1
    C12(15)   OBJ       1
    C12(15)   R0        -1
    C12(15)   R3        19
    C12(15)   R4        14
    C12(15)   R7        19
    C12(15)   R8        4
    C12(15)   R9        3
    C12(15)   R10       4
    C12(15)   R11       9
    C12(15)   R13       13
    C12(15)   R15       4
    C12(15)   R16       11
    C12(15)   R17       12
    C12(15)   R19       6
    C12(15)   R23       7
    C12(15)   R24       6
    C13(13)   OBJ       -4
    C13(13)   R0        6
    C13(13)   R2        18
    C13(13)   R4        2
    C13(13)   R8        8
    C13(13)   R9        3
    C13(13)   R10       5
    C13(13)   R11       5
    C13(13)   R12       16
    C13(13)   R14       15
    C13(13)   R16       16
    C13(13)   R18       19
    C13(13)   R20       19
    C13(13)   R23       11
    C14(13)   OBJ       6
    C14(13)   R0        -2
    C14(13)   R2        -1
    C14(13)   R3        18
    C14(13)   R7        12
    C14(13)   R11       14
    C14(13)   R12       4
    C14(13)   R13       8
    C14(13)   R14       3
    C14(13)   R18       15
    C14(13)   R19       8
    C14(13)   R21       19
    C14(13)   R22       2
    C14(13)   R23       9
    C15(21)   OBJ       3
    C15(21)   R0        5
    C15(21)   R1        14
    C15(21)   R2        16
    C15(21)   R3        18
    C15(21)   R4        18
    C15(21)   R5        11
    C15(21)   R6        19
    C15(21)   R7        19
    C15(21)   R8        11
    C15(21)   R9        5
    C15(21)   R11       8
    C15(21)   R12       9
    C15(21)   R13       5
    C15(21)   R14       4
    C15(21)   R16       19
    C15(21)   R17       16
    C15(21)   R18       8
    C15(21)   R19       2
    C15(21)   R22       6
    C15(21)   R23       14
    C15(21)   R24       3
    C16(10)   OBJ       2
    C16(10)   R0        3
    C16(10)   R2        6
    C16(10)   R5        8
    C16(10)   R10       17
    C16(10)   R13       -1
    C16(10)   R14       12
    C16(10)   R16       16
    C16(10)   R18       2
    C16(10)   R22       1
    C16(10)   R24       2
    C17(19)   OBJ       -9
    C17(19)   R0        3
    C17(19)   R1        -1
    C17(19)   R2        -1
    C17(19)   R3        12
    C17(19)   R4        4
    C17(19)   R5        -1
    C17(19)   R6        8
    C17(19)   R9        19
    C17(19)   R10       6
    C17(19)   R11       17
    C17(19)   R12       10
    C17(19)   R13       1
    C17(19)   R14       13
    C17(19)   R15       14
    C17(19)   R16       3
    C17(19)   R17       3
    C17(19)   R19       1
    C17(19)   R20       7
    C17(19)   R23       17
    C18(11)   OBJ       -2
    C18(11)   R0        -8
    C18(11)   R1        8
    C18(11)   R8        19
    C18(11)   R9        15
    C18(11)   R11       6
    C18(11)   R15       3
    C18(11)   R19       4
    C18(11)   R21       10
    C18(11)   R22       7
    C18(11)   R23       1
    C18(11)   R24       8
    C19(8)    OBJ       9
    C19(8)    R0        3
    C19(8)    R1        2
    C19(8)    R3        2
    C19(8)    R4        13
    C19(8)    R9        13
    C19(8)    R16       5
    C19(8)    R21       16
    C19(8)    R24       19
    C20(9)    OBJ       -8
    C20(9)    R0        6
    C20(9)    R1        8
    C20(9)    R3        14
    C20(9)    R4        8
    C20(9)    R5        4
    C20(9)    R9        16
    C20(9)    R15       7
    C20(9)    R22       12
    C20(9)    R23       6
    C21(14)   OBJ       8
    C21(14)   R0        -2
    C21(14)   R2        4
    C21(14)   R3        9
    C21(14)   R4        9
    C21(14)   R8        8
    C21(14)   R10       6
    C21(14)   R11       -1
    C21(14)   R12       18
    C21(14)   R13       2
    C21(14)   R16       10
    C21(14)   R17       15
    C21(14)   R19       17
    C21(14)   R20       9
    C21(14)   R21       5
    C22(14)   OBJ       3
    C22(14)   R0        -2
    C22(14)   R2        11
    C22(14)   R4        13
    C22(14)   R5        1
    C22(14)   R7        8
    C22(14)   R9        19
    C22(14)   R11       2
    C22(14)   R12       5
    C22(14)   R13       -1
    C22(14)   R17       4
    C22(14)   R19       14
    C22(14)   R22       -1
    C22(14)   R23       8
    C22(14)   R24       17
    C23(15)   OBJ       -6
    C23(15)   R0        -5
    C23(15)   R1        1
    C23(15)   R3        11
    C23(15)   R5        -1
    C23(15)   R7        17
    C23(15)   R8        10
    C23(15)   R10       9
    C23(15)   R12       3
    C23(15)   R13       7
    C23(15)   R17       11
    C23(15)   R18       17
    C23(15)   R19       15
    C23(15)   R21       7
    C23(15)   R23       6
    C23(15)   R24       13
    C24(14)   OBJ       5
    C24(14)   R0        6
    C24(14)   R2        5
    C24(14)   R6        16
    C24(14)   R8        4
    C24(14)   R9        8
    C24(14)   R10       14
    C24(14)   R11       11
    C24(14)   R15       1
    C24(14)   R17       18
    C24(14)   R18       3
    C24(14)   R19       18
    C24(14)   R20       8
    C24(14)   R21       7
    C24(14)   R24       11
    C25(1)    R1        1
    C26(1)    R2        1
    C27(1)    R3        1
    C28(1)    R4        1
    C29(1)    R5        1
    C30(1)    R6        1
    C31(1)    R7        1
    C32(1)    R8        1
    C33(1)    R9        1
    C34(1)    R10       1
    C35(1)    R11       1
    C36(1)    R12       1
    C37(1)    R13       1
    C38(1)    R14       1
    C39(1)    R15       1
    C40(1)    R16       1
    C41(1)    R17       1
    C42(1)    R18       1
    C43(1)    R19       1
    C44(1)    R20       1
    C45(1)    R21       1
    C46(1)    R22       1
    C47(1)    R23       1
    C48(1)    R24       1
    C49(1)    R25       1
RHS
    RHS1      R0        1.5013196594427217e+02
    RHS1      R1        69
    RHS1      R2        78
    RHS1      R3        81
    RHS1      R4        90
    RHS1      R5        88
    RHS1      R6        57
    RHS1      R7        57
    RHS1      R8        59
    RHS1      R9        55
    RHS1      R10       53
    RHS1      R11       59
    RHS1      R12       87
    RHS1      R13       53
    RHS1      R14       51
    RHS1      R15       59
    RHS1      R16       83
    RHS1      R17       86
    RHS1      R18       70
    RHS1      R19       66
    RHS1      R20       94
    RHS1      R21       89
    RHS1      R22       53
    RHS1      R23       76
    RHS1      R24       64
    RHS1      R25       3
BOUNDS
 UP BND1      I0(7)     1
 UP BND1      I1(8)     1
 UP BND1      I2(8)     1
 UP BND1      I3(7)     1
 UP BND1      I4(6)     1
 UP BND1      I5(6)     1
 UP BND1      I6(9)     1
 UP BND1      I7(4)     1
 UP BND1      I8(9)     1
 UP BND1      I9(11)    1
ENDATA
